p cnf 364 868
-1 0
-133 0
1 2 134 0
-1 -2 0
-1 -134 0
-2 -134 0
2 3 135 0
-2 -3 0
-2 -135 0
-3 -135 0
3 4 136 0
-3 -4 0
-3 -136 0
-4 -136 0
4 5 137 0
-4 -5 0
-4 -137 0
-5 -137 0
5 6 138 0
-5 -6 0
-5 -138 0
-6 -138 0
6 7 139 0
-6 -7 0
-6 -139 0
-7 -139 0
7 8 140 0
-7 -8 0
-7 -140 0
-8 -140 0
8 9 141 0
-8 -9 0
-8 -141 0
-9 -141 0
9 10 142 0
-9 -10 0
-9 -142 0
-10 -142 0
10 11 143 0
-10 -11 0
-10 -143 0
-11 -143 0
11 144 0
-11 -144 0
12 133 145 0
-12 -133 0
-12 -145 0
-133 -145 0
12 13 134 146 0
-12 -13 0
-12 -134 0
-13 -134 0
-12 -146 0
-13 -146 0
-134 -146 0
13 14 135 147 0
-13 -14 0
-13 -135 0
-14 -135 0
-13 -147 0
-14 -147 0
-135 -147 0
14 15 136 148 0
-14 -15 0
-14 -136 0
-15 -136 0
-14 -148 0
-15 -148 0
-136 -148 0
15 16 137 149 0
-15 -16 0
-15 -137 0
-16 -137 0
-15 -149 0
-16 -149 0
-137 -149 0
16 17 138 150 0
-16 -17 0
-16 -138 0
-17 -138 0
-16 -150 0
-17 -150 0
-138 -150 0
17 18 139 151 0
-17 -18 0
-17 -139 0
-18 -139 0
-17 -151 0
-18 -151 0
-139 -151 0
18 19 140 152 0
-18 -19 0
-18 -140 0
-19 -140 0
-18 -152 0
-19 -152 0
-140 -152 0
19 20 141 153 0
-19 -20 0
-19 -141 0
-20 -141 0
-19 -153 0
-20 -153 0
-141 -153 0
20 21 142 154 0
-20 -21 0
-20 -142 0
-21 -142 0
-20 -154 0
-21 -154 0
-142 -154 0
21 22 143 155 0
-21 -22 0
-21 -143 0
-22 -143 0
-21 -155 0
-22 -155 0
-143 -155 0
22 144 156 0
-22 -144 0
-22 -156 0
-144 -156 0
23 145 157 0
-23 -145 0
-23 -157 0
-145 -157 0
23 24 146 158 0
-23 -24 0
-23 -146 0
-24 -146 0
-23 -158 0
-24 -158 0
-146 -158 0
24 25 147 159 0
-24 -25 0
-24 -147 0
-25 -147 0
-24 -159 0
-25 -159 0
-147 -159 0
25 26 148 160 0
-25 -26 0
-25 -148 0
-26 -148 0
-25 -160 0
-26 -160 0
-148 -160 0
26 27 149 161 0
-26 -27 0
-26 -149 0
-27 -149 0
-26 -161 0
-27 -161 0
-149 -161 0
27 28 150 162 0
-27 -28 0
-27 -150 0
-28 -150 0
-27 -162 0
-28 -162 0
-150 -162 0
28 29 151 163 0
-28 -29 0
-28 -151 0
-29 -151 0
-28 -163 0
-29 -163 0
-151 -163 0
29 30 152 164 0
-29 -30 0
-29 -152 0
-30 -152 0
-29 -164 0
-30 -164 0
-152 -164 0
30 31 153 165 0
-30 -31 0
-30 -153 0
-31 -153 0
-30 -165 0
-31 -165 0
-153 -165 0
31 32 154 166 0
-31 -32 0
-31 -154 0
-32 -154 0
-31 -166 0
-32 -166 0
-154 -166 0
32 33 155 167 0
-32 -33 0
-32 -155 0
-33 -155 0
-32 -167 0
-33 -167 0
-155 -167 0
33 156 168 0
-33 -156 0
-33 -168 0
-156 -168 0
34 157 169 0
-34 -157 0
-34 -169 0
-157 -169 0
34 35 158 170 0
-34 -35 0
-34 -158 0
-35 -158 0
-34 -170 0
-35 -170 0
-158 -170 0
35 36 159 171 0
-35 -36 0
-35 -159 0
-36 -159 0
-35 -171 0
-36 -171 0
-159 -171 0
36 37 160 172 0
-36 -37 0
-36 -160 0
-37 -160 0
-36 -172 0
-37 -172 0
-160 -172 0
37 38 161 173 0
-37 -38 0
-37 -161 0
-38 -161 0
-37 -173 0
-38 -173 0
-161 -173 0
38 39 162 174 0
-38 -39 0
-38 -162 0
-39 -162 0
-38 -174 0
-39 -174 0
-162 -174 0
39 40 163 175 0
-39 -40 0
-39 -163 0
-40 -163 0
-39 -175 0
-40 -175 0
-163 -175 0
40 41 164 176 0
-40 -41 0
-40 -164 0
-41 -164 0
-40 -176 0
-41 -176 0
-164 -176 0
41 42 165 177 0
-41 -42 0
-41 -165 0
-42 -165 0
-41 -177 0
-42 -177 0
-165 -177 0
42 43 166 178 0
-42 -43 0
-42 -166 0
-43 -166 0
-42 -178 0
-43 -178 0
-166 -178 0
43 44 167 179 0
-43 -44 0
-43 -167 0
-44 -167 0
-43 -179 0
-44 -179 0
-167 -179 0
44 168 180 0
-44 -168 0
-44 -180 0
-168 -180 0
45 169 181 0
-45 -169 0
-45 -181 0
-169 -181 0
45 46 170 182 0
-45 -46 0
-45 -170 0
-46 -170 0
-45 -182 0
-46 -182 0
-170 -182 0
46 47 171 183 0
-46 -47 0
-46 -171 0
-47 -171 0
-46 -183 0
-47 -183 0
-171 -183 0
47 48 172 184 0
-47 -48 0
-47 -172 0
-48 -172 0
-47 -184 0
-48 -184 0
-172 -184 0
48 49 173 185 0
-48 -49 0
-48 -173 0
-49 -173 0
-48 -185 0
-49 -185 0
-173 -185 0
49 50 174 186 0
-49 -50 0
-49 -174 0
-50 -174 0
-49 -186 0
-50 -186 0
-174 -186 0
50 51 175 187 0
-50 -51 0
-50 -175 0
-51 -175 0
-50 -187 0
-51 -187 0
-175 -187 0
51 52 176 188 0
-51 -52 0
-51 -176 0
-52 -176 0
-51 -188 0
-52 -188 0
-176 -188 0
52 53 177 189 0
-52 -53 0
-52 -177 0
-53 -177 0
-52 -189 0
-53 -189 0
-177 -189 0
53 54 178 190 0
-53 -54 0
-53 -178 0
-54 -178 0
-53 -190 0
-54 -190 0
-178 -190 0
54 55 179 191 0
-54 -55 0
-54 -179 0
-55 -179 0
-54 -191 0
-55 -191 0
-179 -191 0
55 180 192 0
-55 -180 0
-55 -192 0
-180 -192 0
56 181 193 0
-56 -181 0
-56 -193 0
-181 -193 0
56 57 182 194 0
-56 -57 0
-56 -182 0
-57 -182 0
-56 -194 0
-57 -194 0
-182 -194 0
57 58 183 195 0
-57 -58 0
-57 -183 0
-58 -183 0
-57 -195 0
-58 -195 0
-183 -195 0
58 59 184 196 0
-58 -59 0
-58 -184 0
-59 -184 0
-58 -196 0
-59 -196 0
-184 -196 0
59 60 185 197 0
-59 -60 0
-59 -185 0
-60 -185 0
-59 -197 0
-60 -197 0
-185 -197 0
60 61 186 198 0
-60 -61 0
-60 -186 0
-61 -186 0
-60 -198 0
-61 -198 0
-186 -198 0
61 62 187 199 0
-61 -62 0
-61 -187 0
-62 -187 0
-61 -199 0
-62 -199 0
-187 -199 0
62 63 188 200 0
-62 -63 0
-62 -188 0
-63 -188 0
-62 -200 0
-63 -200 0
-188 -200 0
63 64 189 201 0
-63 -64 0
-63 -189 0
-64 -189 0
-63 -201 0
-64 -201 0
-189 -201 0
64 65 190 202 0
-64 -65 0
-64 -190 0
-65 -190 0
-64 -202 0
-65 -202 0
-190 -202 0
65 66 191 203 0
-65 -66 0
-65 -191 0
-66 -191 0
-65 -203 0
-66 -203 0
-191 -203 0
66 192 204 0
-66 -192 0
-66 -204 0
-192 -204 0
67 193 205 0
-67 -193 0
-67 -205 0
-193 -205 0
67 68 194 206 0
-67 -68 0
-67 -194 0
-68 -194 0
-67 -206 0
-68 -206 0
-194 -206 0
68 69 195 207 0
-68 -69 0
-68 -195 0
-69 -195 0
-68 -207 0
-69 -207 0
-195 -207 0
69 70 196 208 0
-69 -70 0
-69 -196 0
-70 -196 0
-69 -208 0
-70 -208 0
-196 -208 0
70 71 197 209 0
-70 -71 0
-70 -197 0
-71 -197 0
-70 -209 0
-71 -209 0
-197 -209 0
71 72 198 210 0
-71 -72 0
-71 -198 0
-72 -198 0
-71 -210 0
-72 -210 0
-198 -210 0
72 73 199 211 0
-72 -73 0
-72 -199 0
-73 -199 0
-72 -211 0
-73 -211 0
-199 -211 0
73 74 200 212 0
-73 -74 0
-73 -200 0
-74 -200 0
-73 -212 0
-74 -212 0
-200 -212 0
74 75 201 213 0
-74 -75 0
-74 -201 0
-75 -201 0
-74 -213 0
-75 -213 0
-201 -213 0
75 76 202 214 0
-75 -76 0
-75 -202 0
-76 -202 0
-75 -214 0
-76 -214 0
-202 -214 0
76 77 203 215 0
-76 -77 0
-76 -203 0
-77 -203 0
-76 -215 0
-77 -215 0
-203 -215 0
77 204 216 0
-77 -204 0
-77 -216 0
-204 -216 0
78 205 217 0
-78 -205 0
-78 -217 0
-205 -217 0
78 79 206 218 0
-78 -79 0
-78 -206 0
-79 -206 0
-78 -218 0
-79 -218 0
-206 -218 0
79 80 207 219 0
-79 -80 0
-79 -207 0
-80 -207 0
-79 -219 0
-80 -219 0
-207 -219 0
80 81 208 220 0
-80 -81 0
-80 -208 0
-81 -208 0
-80 -220 0
-81 -220 0
-208 -220 0
81 82 209 221 0
-81 -82 0
-81 -209 0
-82 -209 0
-81 -221 0
-82 -221 0
-209 -221 0
82 83 210 222 0
-82 -83 0
-82 -210 0
-83 -210 0
-82 -222 0
-83 -222 0
-210 -222 0
83 84 211 223 0
-83 -84 0
-83 -211 0
-84 -211 0
-83 -223 0
-84 -223 0
-211 -223 0
84 85 212 224 0
-84 -85 0
-84 -212 0
-85 -212 0
-84 -224 0
-85 -224 0
-212 -224 0
85 86 213 225 0
-85 -86 0
-85 -213 0
-86 -213 0
-85 -225 0
-86 -225 0
-213 -225 0
86 87 214 226 0
-86 -87 0
-86 -214 0
-87 -214 0
-86 -226 0
-87 -226 0
-214 -226 0
87 88 215 227 0
-87 -88 0
-87 -215 0
-88 -215 0
-87 -227 0
-88 -227 0
-215 -227 0
88 216 228 0
-88 -216 0
-88 -228 0
-216 -228 0
89 217 229 0
-89 -217 0
-89 -229 0
-217 -229 0
89 90 218 230 0
-89 -90 0
-89 -218 0
-90 -218 0
-89 -230 0
-90 -230 0
-218 -230 0
90 91 219 231 0
-90 -91 0
-90 -219 0
-91 -219 0
-90 -231 0
-91 -231 0
-219 -231 0
91 92 220 232 0
-91 -92 0
-91 -220 0
-92 -220 0
-91 -232 0
-92 -232 0
-220 -232 0
92 93 221 233 0
-92 -93 0
-92 -221 0
-93 -221 0
-92 -233 0
-93 -233 0
-221 -233 0
93 94 222 234 0
-93 -94 0
-93 -222 0
-94 -222 0
-93 -234 0
-94 -234 0
-222 -234 0
94 95 223 235 0
-94 -95 0
-94 -223 0
-95 -223 0
-94 -235 0
-95 -235 0
-223 -235 0
95 96 224 236 0
-95 -96 0
-95 -224 0
-96 -224 0
-95 -236 0
-96 -236 0
-224 -236 0
96 97 225 237 0
-96 -97 0
-96 -225 0
-97 -225 0
-96 -237 0
-97 -237 0
-225 -237 0
97 98 226 238 0
-97 -98 0
-97 -226 0
-98 -226 0
-97 -238 0
-98 -238 0
-226 -238 0
98 99 227 239 0
-98 -99 0
-98 -227 0
-99 -227 0
-98 -239 0
-99 -239 0
-227 -239 0
99 228 240 0
-99 -228 0
-99 -240 0
-228 -240 0
100 229 241 0
-100 -229 0
-100 -241 0
-229 -241 0
100 101 230 242 0
-100 -101 0
-100 -230 0
-101 -230 0
-100 -242 0
-101 -242 0
-230 -242 0
101 102 231 243 0
-101 -102 0
-101 -231 0
-102 -231 0
-101 -243 0
-102 -243 0
-231 -243 0
102 103 232 244 0
-102 -103 0
-102 -232 0
-103 -232 0
-102 -244 0
-103 -244 0
-232 -244 0
103 104 233 245 0
-103 -104 0
-103 -233 0
-104 -233 0
-103 -245 0
-104 -245 0
-233 -245 0
104 105 234 246 0
-104 -105 0
-104 -234 0
-105 -234 0
-104 -246 0
-105 -246 0
-234 -246 0
105 106 235 247 0
-105 -106 0
-105 -235 0
-106 -235 0
-105 -247 0
-106 -247 0
-235 -247 0
106 107 236 248 0
-106 -107 0
-106 -236 0
-107 -236 0
-106 -248 0
-107 -248 0
-236 -248 0
107 108 237 249 0
-107 -108 0
-107 -237 0
-108 -237 0
-107 -249 0
-108 -249 0
-237 -249 0
108 109 238 250 0
-108 -109 0
-108 -238 0
-109 -238 0
-108 -250 0
-109 -250 0
-238 -250 0
109 110 239 251 0
-109 -110 0
-109 -239 0
-110 -239 0
-109 -251 0
-110 -251 0
-239 -251 0
110 240 252 0
-110 -240 0
-110 -252 0
-240 -252 0
111 241 253 0
-111 -241 0
-111 -253 0
-241 -253 0
111 112 242 254 0
-111 -112 0
-111 -242 0
-112 -242 0
-111 -254 0
-112 -254 0
-242 -254 0
112 113 243 255 0
-112 -113 0
-112 -243 0
-113 -243 0
-112 -255 0
-113 -255 0
-243 -255 0
113 114 244 256 0
-113 -114 0
-113 -244 0
-114 -244 0
-113 -256 0
-114 -256 0
-244 -256 0
114 115 245 257 0
-114 -115 0
-114 -245 0
-115 -245 0
-114 -257 0
-115 -257 0
-245 -257 0
115 116 246 258 0
-115 -116 0
-115 -246 0
-116 -246 0
-115 -258 0
-116 -258 0
-246 -258 0
116 117 247 259 0
-116 -117 0
-116 -247 0
-117 -247 0
-116 -259 0
-117 -259 0
-247 -259 0
117 118 248 260 0
-117 -118 0
-117 -248 0
-118 -248 0
-117 -260 0
-118 -260 0
-248 -260 0
118 119 249 261 0
-118 -119 0
-118 -249 0
-119 -249 0
-118 -261 0
-119 -261 0
-249 -261 0
119 120 250 262 0
-119 -120 0
-119 -250 0
-120 -250 0
-119 -262 0
-120 -262 0
-250 -262 0
120 121 251 263 0
-120 -121 0
-120 -251 0
-121 -251 0
-120 -263 0
-121 -263 0
-251 -263 0
121 252 264 0
-121 -252 0
-121 -264 0
-252 -264 0
122 253 0
-122 -253 0
122 123 254 0
-122 -123 0
-122 -254 0
-123 -254 0
123 124 255 0
-123 -124 0
-123 -255 0
-124 -255 0
124 125 256 0
-124 -125 0
-124 -256 0
-125 -256 0
125 126 257 0
-125 -126 0
-125 -257 0
-126 -257 0
126 127 258 0
-126 -127 0
-126 -258 0
-127 -258 0
127 128 259 0
-127 -128 0
-127 -259 0
-128 -259 0
128 129 260 0
-128 -129 0
-128 -260 0
-129 -260 0
129 130 261 0
-129 -130 0
-129 -261 0
-130 -261 0
130 131 262 0
-130 -131 0
-130 -262 0
-131 -262 0
131 132 263 0
-131 -132 0
-131 -263 0
-132 -263 0
-132 0
-264 0
